Route #1: 1 26 46 42 25 7 54 16 30 43 1
Route #2: 1 28 53 2 17 36 49 37 50 4 1
Route #3: 1 38 5 40 48 8 27 14 1
Route #4: 1 33 34 3 32 21 55 35 31 56 12 18 1
Route #5: 1 44 13 10 51 23 39 24 6 20 1
Route #6: 1 19 11 45 15 52 41 47 9 29 1
Route #7: 1 22 1
cost 859
